data/CVRPLIB/Vrp-Set-XML100/instances/XML100_3112_07.vrp
NAME : XML100_3112_07
COMMENT : Generated by Queiroga, Sadykov, Uchoa, and Vidal (2021)
TYPE : CVRP
DIMENSION : 101
EDGE_WEIGHT_TYPE : EUC_2D
CAPACITY : 5
NODE_COORD_SECTION
1    0    0   
2    857  157 
3    156  958 
4    252  690 
5    908  37  
6    80   304 
7    224  312 
8    933  666 
9    193  775 
10   698  999 
11   653  726 
12   90   522 
13   411  624 
14   890  804 
15   36   24  
16   472  289 
17   598  234 
18   334  662 
19   854  239 
20   532  990 
21   673  788 
22   401  206 
23   380  406 
24   372  343 
25   737  401 
26   259  125 
27   129  779 
28   266  709 
29   760  775 
30   451  205 
31   527  511 
32   251  644 
33   862  624 
34   771  444 
35   242  961 
36   107  877 
37   586  267 
38   311  657 
39   566  316 
40   939  98  
41   870  714 
42   650  121 
43   834  202 
44   992  593 
45   806  980 
46   654  181 
47   680  921 
48   239  20  
49   136  167 
50   413  95  
51   535  207 
52   50   564 
53   201  621 
54   343  607 
55   426  58  
56   380  826 
57   557  582 
58   42   830 
59   69   581 
60   440  604 
61   126  669 
62   713  663 
63   687  572 
64   409  686 
65   42   343 
66   582  679 
67   47   194 
68   226  802 
69   118  8   
70   842  608 
71   984  885 
72   795  826 
73   123  717 
74   918  967 
75   899  302 
76   39   33  
77   530  8   
78   983  868 
79   116  34  
80   775  487 
81   698  63  
82   949  402 
83   806  24  
84   484  824 
85   444  908 
86   804  867 
87   47   66  
88   350  136 
89   743  723 
90   918  807 
91   12   638 
92   954  17  
93   815  585 
94   562  618 
95   662  724 
96   664  124 
97   903  688 
98   615  618 
99   403  864 
100  767  542 
101  475  637 
DEMAND_SECTION
1    0   
2    1   
3    1   
4    1   
5    1   
6    1   
7    1   
8    1   
9    1   
10   1   
11   1   
12   1   
13   1   
14   1   
15   1   
16   1   
17   1   
18   1   
19   1   
20   1   
21   1   
22   1   
23   1   
24   1   
25   1   
26   1   
27   1   
28   1   
29   1   
30   1   
31   1   
32   1   
33   1   
34   1   
35   1   
36   1   
37   1   
38   1   
39   1   
40   1   
41   1   
42   1   
43   1   
44   1   
45   1   
46   1   
47   1   
48   1   
49   1   
50   1   
51   1   
52   1   
53   1   
54   1   
55   1   
56   1   
57   1   
58   1   
59   1   
60   1   
61   1   
62   1   
63   1   
64   1   
65   1   
66   1   
67   1   
68   1   
69   1   
70   1   
71   1   
72   1   
73   1   
74   1   
75   1   
76   1   
77   1   
78   1   
79   1   
80   1   
81   1   
82   1   
83   1   
84   1   
85   1   
86   1   
87   1   
88   1   
89   1   
90   1   
91   1   
92   1   
93   1   
94   1   
95   1   
96   1   
97   1   
98   1   
99   1   
100  1   
101  1   
DEPOT_SECTION
1
-1
EOF
