data/CVRPLIB/Vrp-Set-XML100/solutions/XML100_3112_07.sol
Route #1: 57 35 2 34 67
Route #2: 40 96 7 43 81
Route #3: 25 87 49 54 47
Route #4: 41 95 45 16 50
Route #5: 24 33 79 99 62
Route #6: 46 9 44 85 71
Route #7: 59 12 63 17 53
Route #8: 55 98 84 19 83
Route #9: 68 78 86 75 14
Route #10: 1 39 91 4 82
Route #11: 66 6 22 23 48
Route #12: 73 70 77 89 13
Route #13: 37 27 3 31 52
Route #14: 88 28 20 94 10
Route #15: 21 29 36 38 15
Route #16: 5 11 58 51 64
Route #17: 97 61 32 69 92
Route #18: 74 18 42 80 76
Route #19: 90 26 8 72 60
Route #20: 30 56 93 65 100
Cost 35829
